objective value:                                    0
lambda[1,22]*                                       1 	(obj:0)
lambda[1,30]*                                       6 	(obj:0)
lambda[0,33]*                                       4 	(obj:0)
lambda[0,34]*                                       5 	(obj:0)
lambda[1,35]*                                       3 	(obj:0)
lambda[0,38]*                                       1 	(obj:0)
